45
1 0 45
2 0 89
2 1 52
3 0 2
3 1 49
3 2 26
4 0 44
4 1 93
4 2 37
4 3 52
5 0 48
5 1 78
5 2 14
5 3 96
5 4 70
6 0 66
6 1 47
6 2 82
6 3 61
6 4 28
6 5 14
7 0 74
7 1 93
7 2 4
7 3 42
7 4 62
7 5 78
7 6 25
8 0 29
8 1 33
8 2 15
8 3 80
8 4 15
8 5 5
8 6 62
8 7 39
9 0 38
9 1 14
9 2 67
9 3 8
9 4 98
9 5 73
9 6 97
9 7 83
9 8 3
10 0 58
10 1 55
10 2 30
10 3 79
10 4 79
10 5 87
10 6 100
10 7 75
10 8 43
10 9 87
11 0 65
11 1 68
11 2 20
11 3 79
11 4 35
11 5 83
11 6 70
11 7 35
11 8 78
11 9 58
11 10 87
12 0 34
12 1 66
12 2 34
12 3 66
12 4 93
12 5 18
12 6 39
12 7 12
12 8 19
12 9 10
12 10 99
12 11 30
13 0 60
13 1 69
13 2 7
13 3 83
13 4 56
13 5 82
13 6 13
13 7 89
13 8 18
13 9 74
13 10 27
13 11 4
13 12 84
14 0 46
14 1 54
14 2 13
14 3 38
14 4 73
14 5 90
14 6 22
14 7 79
14 8 2
14 9 49
14 10 26
14 11 81
14 12 7
14 13 19
15 0 92
15 1 90
15 2 75
15 3 43
15 4 83
15 5 30
15 6 47
15 7 80
15 8 18
15 9 35
15 10 37
15 11 4
15 12 41
15 13 10
15 14 83
16 0 32
16 1 29
16 2 5
16 3 30
16 4 94
16 5 94
16 6 42
16 7 33
16 8 85
16 9 28
16 10 33
16 11 27
16 12 66
16 13 9
16 14 87
16 15 20
17 0 99
17 1 75
17 2 75
17 3 85
17 4 36
17 5 16
17 6 25
17 7 69
17 8 92
17 9 53
17 10 47
17 11 43
17 12 79
17 13 5
17 14 18
17 15 63
17 16 83
18 0 58
18 1 78
18 2 10
18 3 95
18 4 82
18 5 13
18 6 31
18 7 46
18 8 75
18 9 26
18 10 1
18 11 2
18 12 18
18 13 29
18 14 86
18 15 9
18 16 76
18 17 98
19 0 58
19 1 6
19 2 69
19 3 80
19 4 100
19 5 47
19 6 10
19 7 40
19 8 18
19 9 86
19 10 87
19 11 88
19 12 25
19 13 30
19 14 12
19 15 31
19 16 74
19 17 61
19 18 94
20 0 25
20 1 53
20 2 71
20 3 95
20 4 41
20 5 77
20 6 79
20 7 63
20 8 51
20 9 27
20 10 12
20 11 78
20 12 6
20 13 31
20 14 74
20 15 43
20 16 78
20 17 80
20 18 25
20 19 88
21 0 53
21 1 30
21 2 58
21 3 1
21 4 29
21 5 33
21 6 44
21 7 89
21 8 45
21 9 89
21 10 73
21 11 16
21 12 32
21 13 22
21 14 15
21 15 3
21 16 86
21 17 17
21 18 82
21 19 71
21 20 91
22 0 78
22 1 75
22 2 50
22 3 34
22 4 81
22 5 20
22 6 9
22 7 7
22 8 39
22 9 48
22 10 70
22 11 78
22 12 15
22 13 77
22 14 93
22 15 76
22 16 21
22 17 77
22 18 80
22 19 27
22 20 20
22 21 52
23 0 12
23 1 27
23 2 5
23 3 58
23 4 9
23 5 56
23 6 9
23 7 33
23 8 5
23 9 46
23 10 99
23 11 28
23 12 57
23 13 72
23 14 38
23 15 48
23 16 32
23 17 33
23 18 15
23 19 47
23 20 45
23 21 29
23 22 91
24 0 42
24 1 49
24 2 53
24 3 7
24 4 28
24 5 84
24 6 66
24 7 43
24 8 25
24 9 46
24 10 14
24 11 36
24 12 69
24 13 34
24 14 100
24 15 81
24 16 48
24 17 82
24 18 37
24 19 96
24 20 33
24 21 85
24 22 29
24 23 5
25 0 51
25 1 78
25 2 63
25 3 65
25 4 23
25 5 23
25 6 6
25 7 76
25 8 32
25 9 16
25 10 44
25 11 10
25 12 14
25 13 23
25 14 8
25 15 63
25 16 92
25 17 94
25 18 67
25 19 26
25 20 76
25 21 28
25 22 84
25 23 20
25 24 10
26 0 82
26 1 74
26 2 32
26 3 49
26 4 47
26 5 2
26 6 65
26 7 78
26 8 35
26 9 8
26 10 84
26 11 17
26 12 46
26 13 61
26 14 2
26 15 73
26 16 15
26 17 53
26 18 66
26 19 30
26 20 58
26 21 16
26 22 25
26 23 94
26 24 61
26 25 2
27 0 84
27 1 25
27 2 82
27 3 63
27 4 81
27 5 31
27 6 70
27 7 24
27 8 42
27 9 99
27 10 5
27 11 36
27 12 7
27 13 99
27 14 29
27 15 54
27 16 21
27 17 74
27 18 9
27 19 63
27 20 29
27 21 3
27 22 57
27 23 75
27 24 41
27 25 15
27 26 4
28 0 35
28 1 37
28 2 71
28 3 94
28 4 40
28 5 28
28 6 51
28 7 47
28 8 39
28 9 9
28 10 17
28 11 7
28 12 75
28 13 53
28 14 34
28 15 83
28 16 96
28 17 34
28 18 71
28 19 35
28 20 20
28 21 93
28 22 9
28 23 73
28 24 66
28 25 66
28 26 39
28 27 58
29 0 56
29 1 51
29 2 23
29 3 48
29 4 64
29 5 77
29 6 36
29 7 3
29 8 69
29 9 1
29 10 40
29 11 48
29 12 31
29 13 53
29 14 35
29 15 69
29 16 1
29 17 97
29 18 98
29 19 82
29 20 27
29 21 82
29 22 1
29 23 99
29 24 34
29 25 100
29 26 72
29 27 79
29 28 72
30 0 79
30 1 42
30 2 58
30 3 66
30 4 72
30 5 82
30 6 61
30 7 14
30 8 16
30 9 36
30 10 71
30 11 17
30 12 90
30 13 97
30 14 99
30 15 41
30 16 80
30 17 80
30 18 62
30 19 28
30 20 26
30 21 94
30 22 99
30 23 23
30 24 33
30 25 17
30 26 46
30 27 88
30 28 43
30 29 15
31 0 70
31 1 97
31 2 15
31 3 80
31 4 31
31 5 55
31 6 61
31 7 62
31 8 17
31 9 77
31 10 31
31 11 18
31 12 73
31 13 12
31 14 40
31 15 11
31 16 20
31 17 17
31 18 91
31 19 38
31 20 36
31 21 2
31 22 30
31 23 54
31 24 38
31 25 93
31 26 36
31 27 28
31 28 4
31 29 11
31 30 39
32 0 55
32 1 97
32 2 38
32 3 9
32 4 98
32 5 7
32 6 29
32 7 69
32 8 44
32 9 6
32 10 93
32 11 17
32 12 96
32 13 90
32 14 47
32 15 67
32 16 21
32 17 52
32 18 20
32 19 37
32 20 53
32 21 99
32 22 50
32 23 49
32 24 97
32 25 30
32 26 24
32 27 16
32 28 94
32 29 12
32 30 31
32 31 34
33 0 43
33 1 44
33 2 37
33 3 7
33 4 80
33 5 80
33 6 5
33 7 55
33 8 81
33 9 52
33 10 14
33 11 9
33 12 15
33 13 26
33 14 53
33 15 78
33 16 81
33 17 74
33 18 90
33 19 37
33 20 91
33 21 41
33 22 51
33 23 92
33 24 1
33 25 44
33 26 48
33 27 93
33 28 88
33 29 42
33 30 43
33 31 24
33 32 27
34 0 38
34 1 48
34 2 78
34 3 17
34 4 33
34 5 87
34 6 8
34 7 64
34 8 26
34 9 69
34 10 94
34 11 20
34 12 22
34 13 54
34 14 82
34 15 24
34 16 15
34 17 11
34 18 89
34 19 9
34 20 38
34 21 98
34 22 52
34 23 64
34 24 9
34 25 8
34 26 100
34 27 65
34 28 9
34 29 71
34 30 62
34 31 19
34 32 66
34 33 2
35 0 31
35 1 72
35 2 46
35 3 25
35 4 52
35 5 91
35 6 65
35 7 31
35 8 26
35 9 17
35 10 73
35 11 42
35 12 12
35 13 32
35 14 72
35 15 78
35 16 90
35 17 18
35 18 76
35 19 63
35 20 19
35 21 73
35 22 23
35 23 23
35 24 93
35 25 25
35 26 91
35 27 39
35 28 85
35 29 60
35 30 90
35 31 72
35 32 26
35 33 45
35 34 12
36 0 81
36 1 73
36 2 31
36 3 84
36 4 82
36 5 43
36 6 40
36 7 44
36 8 38
36 9 33
36 10 97
36 11 29
36 12 58
36 13 47
36 14 48
36 15 65
36 16 66
36 17 100
36 18 69
36 19 71
36 20 54
36 21 71
36 22 79
36 23 43
36 24 31
36 25 19
36 26 85
36 27 65
36 28 40
36 29 100
36 30 40
36 31 60
36 32 97
36 33 28
36 34 86
36 35 94
37 0 79
37 1 84
37 2 20
37 3 83
37 4 56
37 5 62
37 6 89
37 7 66
37 8 64
37 9 98
37 10 15
37 11 51
37 12 38
37 13 31
37 14 11
37 15 44
37 16 70
37 17 89
37 18 17
37 19 12
37 20 60
37 21 1
37 22 92
37 23 53
37 24 62
37 25 69
37 26 27
37 27 61
37 28 61
37 29 60
37 30 64
37 31 16
37 32 18
37 33 1
37 34 46
37 35 39
37 36 75
38 0 86
38 1 22
38 2 78
38 3 13
38 4 24
38 5 89
38 6 37
38 7 89
38 8 94
38 9 43
38 10 49
38 11 13
38 12 77
38 13 70
38 14 53
38 15 34
38 16 93
38 17 2
38 18 36
38 19 33
38 20 57
38 21 12
38 22 49
38 23 69
38 24 18
38 25 37
38 26 99
38 27 2
38 28 77
38 29 33
38 30 77
38 31 97
38 32 70
38 33 19
38 34 92
38 35 93
38 36 65
38 37 54
39 0 94
39 1 69
39 2 31
39 3 59
39 4 29
39 5 63
39 6 51
39 7 78
39 8 44
39 9 18
39 10 97
39 11 28
39 12 38
39 13 54
39 14 1
39 15 2
39 16 39
39 17 94
39 18 70
39 19 12
39 20 33
39 21 6
39 22 43
39 23 89
39 24 95
39 25 19
39 26 81
39 27 75
39 28 79
39 29 33
39 30 38
39 31 78
39 32 80
39 33 38
39 34 65
39 35 70
39 36 77
39 37 4
39 38 33
40 0 57
40 1 6
40 2 5
40 3 70
40 4 43
40 5 35
40 6 95
40 7 73
40 8 68
40 9 35
40 10 51
40 11 19
40 12 94
40 13 67
40 14 41
40 15 90
40 16 77
40 17 37
40 18 94
40 19 97
40 20 29
40 21 74
40 22 63
40 23 47
40 24 77
40 25 52
40 26 33
40 27 9
40 28 67
40 29 49
40 30 92
40 31 63
40 32 60
40 33 10
40 34 76
40 35 43
40 36 41
40 37 71
40 38 64
40 39 93
41 0 11
41 1 52
41 2 60
41 3 17
41 4 53
41 5 22
41 6 22
41 7 87
41 8 82
41 9 8
41 10 99
41 11 29
41 12 23
41 13 88
41 14 85
41 15 7
41 16 81
41 17 86
41 18 26
41 19 83
41 20 89
41 21 86
41 22 17
41 23 19
41 24 46
41 25 2
41 26 71
41 27 32
41 28 4
41 29 79
41 30 71
41 31 46
41 32 33
41 33 29
41 34 16
41 35 84
41 36 89
41 37 9
41 38 32
41 39 97
41 40 80
42 0 96
42 1 100
42 2 29
42 3 71
42 4 25
42 5 33
42 6 51
42 7 1
42 8 89
42 9 99
42 10 35
42 11 87
42 12 24
42 13 71
42 14 27
42 15 47
42 16 11
42 17 49
42 18 57
42 19 69
42 20 88
42 21 92
42 22 95
42 23 93
42 24 46
42 25 52
42 26 21
42 27 95
42 28 44
42 29 87
42 30 90
42 31 98
42 32 79
42 33 20
42 34 12
42 35 25
42 36 97
42 37 43
42 38 54
42 39 90
42 40 17
42 41 3
43 0 48
43 1 92
43 2 10
43 3 12
43 4 81
43 5 29
43 6 71
43 7 60
43 8 57
43 9 94
43 10 48
43 11 40
43 12 2
43 13 82
43 14 39
43 15 4
43 16 26
43 17 30
43 18 61
43 19 5
43 20 62
43 21 83
43 22 47
43 23 98
43 24 70
43 25 37
43 26 42
43 27 16
43 28 40
43 29 16
43 30 89
43 31 26
43 32 65
43 33 77
43 34 23
43 35 31
43 36 56
43 37 62
43 38 31
43 39 3
43 40 4
43 41 19
43 42 38
44 0 22
44 1 36
44 2 82
44 3 15
44 4 78
44 5 12
44 6 75
44 7 33
44 8 66
44 9 49
44 10 69
44 11 14
44 12 64
44 13 85
44 14 31
44 15 37
44 16 87
44 17 4
44 18 19
44 19 3
44 20 57
44 21 97
44 22 27
44 23 81
44 24 18
44 25 28
44 26 82
44 27 75
44 28 100
44 29 21
44 30 39
44 31 86
44 32 14
44 33 95
44 34 37
44 35 66
44 36 16
44 37 18
44 38 7
44 39 82
44 40 84
44 41 42
44 42 39
44 43 36
